
  32    4
  10   10   10   10

   0   0   0   0   0  10 2 3 4 5 6 7 12 13 30 31 
   2   0   1   1   1  11 28 26 25 24 23 22 21 19 17 16 10 
   2   1   7   3   0   8 29 23 21 20 18 16 15 8 
   5   0   2   3   4   7 27 23 22 19 18 14 11 
   1   5   0   6   5   5 26 25 22 17 15 
   3   6   2   0   2   4 21 20 19 9 
   1   2   5   0   5   3 20 18 9 
   9   5   3   0   9   3 24 17 14 
   6   6   4   2   0   1 14 
   5   2   4   0   2   1 14 
  10   5   0   1   6   1 16 
   1   3   5   0   4   1 15 
   9   2   0   6   2   1 15 
   2   2   0   2   3   1 32
   6   4   4   4   0   1 32
   8   0   4   3   2   1 32
   3   3   0   3   4   1 32
   2   6   2   0   3   1 32
   4   0   3   6   3   1 32
   6   4   6   5   0   1 32
   5   5   5   0   7   1 32
   2   0   6   7   1   1 32
  10   0   3   5   2   1 32
   8   7   0   7   4   1 32
   8   3   5   0   2   1 32
   5   0   5   2   4   1 32
   4   3   0   5   6   1 32
  10   7   0   4   5   1 32
   7   4   0   4   6   1 32
   1   0   4   6   4   1 32
   8   3   0   3   8   1 32
   0   0   0   0   0   0 
